unsat
(forall ((A (_ BitVec 20))
         (B (_ BitVec 20))
         (C (_ BitVec 20))
         (D (_ BitVec 20))
         (E (_ BitVec 20))
         (F (_ BitVec 20))
         (G (_ BitVec 20))
         (H (_ BitVec 20))
         (I (_ BitVec 20))
         (J (_ BitVec 20))
         (K (_ BitVec 20))
         (L (_ BitVec 20))
         (M (_ BitVec 20))
         (N (_ BitVec 20))
         (O (_ BitVec 20))
         (P (_ BitVec 20))
         (Q (_ BitVec 20))
         (R (_ BitVec 20))
         (S (_ BitVec 20))
         (T (_ BitVec 1))
         (U (_ BitVec 20))
         (V (_ BitVec 18))
         (W (_ BitVec 20))
         (X (_ BitVec 18))
         (Y (_ BitVec 20))
         (Z (_ BitVec 20))
         (A1 (_ BitVec 38))
         (B1 (_ BitVec 1))
         (C1 (_ BitVec 20))
         (D1 (_ BitVec 1))
         (E1 (_ BitVec 20))
         (F1 (_ BitVec 20))
         (G1 (_ BitVec 20))
         (H1 (_ BitVec 20))
         (I1 (_ BitVec 20))
         (J1 (_ BitVec 20))
         (K1 (_ BitVec 20))
         (L1 (_ BitVec 38))
         (M1 (_ BitVec 20))
         (N1 (_ BitVec 20))
         (O1 (_ BitVec 1))
         (P1 (_ BitVec 38))
         (Q1 (_ BitVec 1))
         (R1 (_ BitVec 20))
         (S1 (_ BitVec 20))
         (T1 (_ BitVec 20))
         (U1 (_ BitVec 20))
         (V1 (_ BitVec 14))
         (W1 (_ BitVec 20))
         (X1 (_ BitVec 20))
         (Y1 (_ BitVec 1))
         (Z1 (_ BitVec 22))
         (A2 (_ BitVec 20))
         (B2 (_ BitVec 20))
         (C2 (_ BitVec 20))
         (D2 (_ BitVec 20))
         (E2 (_ BitVec 1))
         (F2 (_ BitVec 1))
         (G2 (_ BitVec 1))
         (H2 (_ BitVec 38))
         (I2 (_ BitVec 14))
         (J2 (_ BitVec 22))
         (K2 (_ BitVec 14))
         (L2 (_ BitVec 22))
         (M2 (_ BitVec 22))
         (N2 (_ BitVec 20))
         (O2 (_ BitVec 16))
         (P2 (_ BitVec 38))
         (Q2 (_ BitVec 30))
         (R2 (_ BitVec 30))
         (S2 (_ BitVec 20))
         (T2 (_ BitVec 20))
         (U2 (_ BitVec 1))
         (V2 (_ BitVec 20))
         (W2 (_ BitVec 20))
         (X2 (_ BitVec 20))
         (Y2 (_ BitVec 20))
         (Z2 (_ BitVec 20))
         (A3 (_ BitVec 16))
         (B3 (_ BitVec 20))
         (C3 (_ BitVec 18))
         (D3 (_ BitVec 30))
         (E3 (_ BitVec 1))
         (F3 (_ BitVec 38))
         (G3 (_ BitVec 30)))
  (! (let ((a!1 (= ((_ extract 31 2)
                     (bvadd (concat #b0000000000 L2) ((_ extract 37 6) L1)))
                   #b000000000000000000000000000000))
           (a!2 (or (not (= T1 #x00000))
                    (= ((_ extract 2 2) L) #b1)
                    (not (= ((_ extract 2 2) K1) #b1))))
           (a!3 (or ((_ bit2bool 0) V)
                    ((_ bit2bool 0) C3)
                    (not (= ((_ extract 0 0) X) #b1))))
           (a!4 (= ((_ extract 33 4)
                     (bvadd (concat #x000 J2) ((_ extract 37 4) P1)))
                   #b000000000000000000000000000000))
           (a!5 ((_ extract 22 6)
                  (bvadd (concat #b000 ((_ extract 21 2) Z1)) (concat #b0 M2))))
           (a!6 (or ((_ bit2bool 0) Y) (not (= ((_ extract 0 0) W1) #b1))))
           (a!7 (or ((_ bit2bool 0) A2) (not (= ((_ extract 0 0) E1) #b1)))))
     (let ((a!8 (and (not ((_ bit2bool 0) I2))
                     (= ((_ extract 37 8) A1) #b000000000000000000000000000000)
                     (not (= ((_ extract 17 17) C3) #b1))
                     (not (= ((_ extract 17 17) X) #b1))
                     (or ((_ bit2bool 0) T1)
                         ((_ bit2bool 0) L)
                         (not ((_ bit2bool 0) K1)))
                     a!1
                     (not ((_ bit2bool 2) I2))
                     (not ((_ bit2bool 0) K2))
                     (not (= ((_ extract 17 17) V) #b1))
                     (not ((_ bit2bool 3) I2))
                     (not ((_ bit2bool 1) K2))
                     (or ((_ bit2bool 0) T1)
                         (not ((_ bit2bool 0) L))
                         (= ((_ extract 0 0) K1) #b1))
                     a!2
                     a!3
                     a!4
                     (not ((_ bit2bool 1) I2))
                     (= a!5 #b00000000000000000)
                     a!6
                     a!7
                     (or (not ((_ bit2bool 0) F2)) (not (= G2 #b0))))))
       (= (INV!slice!1 A
                       B
                       C
                       D
                       E
                       F
                       G
                       H
                       I
                       J
                       K
                       L
                       M
                       N
                       O
                       P
                       Q
                       R
                       S
                       T
                       U
                       V
                       W
                       X
                       Y
                       Z
                       A1
                       B1
                       C1
                       D1
                       E1
                       F1
                       G1
                       H1
                       I1
                       J1
                       K1
                       L1
                       M1
                       N1
                       O1
                       P1
                       Q1
                       R1
                       S1
                       T1
                       U1
                       V1
                       W1
                       X1
                       Y1
                       Z1
                       A2
                       B2
                       C2
                       D2
                       E2
                       F2
                       G2
                       H2
                       I2
                       J2
                       K2
                       L2
                       M2
                       N2
                       O2
                       P2
                       Q2
                       R2
                       S2
                       T2
                       U2
                       V2
                       W2
                       X2
                       Y2
                       Z2
                       A3
                       B3
                       C3
                       D3
                       E3
                       F3
                       G3)
          a!8)))
     :weight 0))
